363,724
399,794
207,481
1135,175
735,512
829,554
658,554
888,374
1184,327
935,152
597,-127
734,379
871,216
488,672
624,424
799,424
178,327
802,318
823,360
937,489
681,-134
822,600
850,283
751,-38
441,406
699,349
765,322
542,-21
858,434
616,820
